(set-info :smt-lib-version 2.6)
(set-logic QF_NIA)
(set-info :source |
Generated by: Cristina Borralleras, Daniel Larraz, Albert Oliveras, Enric Rodriguez-Carbonell, Albert Rubio
Generated on: 2017-04-27
Generator: VeryMax
Application: Termination proving
Target solver: barcelogic
|)
(set-info :license "https://creativecommons.org/licenses/by/4.0/")
(set-info :category "industrial")
(set-info :status sat)
(declare-fun Nl7x_10^01 () Int)
(declare-fun Nl7x_10^02 () Int)
(declare-fun Nl7x_10^03 () Int)
(declare-fun lam0n0 () Int)
(declare-fun lam0n1 () Int)
(declare-fun lam0n2 () Int)
(declare-fun lam0n3 () Int)
(declare-fun lam0n4 () Int)
(declare-fun lam0n5 () Int)
(declare-fun UndefCntr0_CT () Int)
(declare-fun Nl7CT1 () Int)
(declare-fun Nl7CT2 () Int)
(declare-fun Nl7CT3 () Int)
(declare-fun UndefCntr0_x_10^0 () Int)
(declare-fun UndefCntr0_undef45 () Int)
(declare-fun lam1n0 () Int)
(declare-fun lam1n1 () Int)
(declare-fun lam1n2 () Int)
(declare-fun lam1n3 () Int)
(declare-fun lam1n4 () Int)
(declare-fun lam1n5 () Int)
(declare-fun lam2n0 () Int)
(declare-fun lam2n1 () Int)
(declare-fun lam2n2 () Int)
(declare-fun lam2n3 () Int)
(declare-fun lam2n4 () Int)
(declare-fun lam2n5 () Int)
(declare-fun lam3n0 () Int)
(declare-fun lam3n1 () Int)
(declare-fun lam3n2 () Int)
(declare-fun lam3n3 () Int)
(declare-fun lam3n4 () Int)
(declare-fun lam3n5 () Int)
(declare-fun lam4n0 () Int)
(declare-fun lam4n1 () Int)
(declare-fun lam4n2 () Int)
(declare-fun lam4n3 () Int)
(declare-fun lam4n4 () Int)
(declare-fun lam4n5 () Int)
(declare-fun UndefCntr1_CT () Int)
(declare-fun UndefCntr1_x_10^0 () Int)
(declare-fun UndefCntr1_undef45 () Int)
(declare-fun lam5n0 () Int)
(declare-fun lam5n1 () Int)
(declare-fun lam5n2 () Int)
(declare-fun lam5n3 () Int)
(declare-fun lam5n4 () Int)
(declare-fun lam5n5 () Int)
(declare-fun lam6n0 () Int)
(declare-fun lam6n1 () Int)
(declare-fun lam6n2 () Int)
(declare-fun lam6n3 () Int)
(declare-fun lam6n4 () Int)
(declare-fun lam6n5 () Int)
(declare-fun lam7n0 () Int)
(declare-fun lam7n1 () Int)
(declare-fun lam7n2 () Int)
(declare-fun lam7n3 () Int)
(declare-fun lam7n4 () Int)
(declare-fun lam7n5 () Int)
(declare-fun lam8n0 () Int)
(declare-fun lam8n1 () Int)
(declare-fun lam8n2 () Int)
(declare-fun lam9n0 () Int)
(declare-fun lam9n1 () Int)
(declare-fun lam9n2 () Int)
(declare-fun lam10n0 () Int)
(declare-fun lam10n1 () Int)
(declare-fun lam10n2 () Int)
(declare-fun lam11n0 () Int)
(declare-fun lam11n1 () Int)
(declare-fun lam11n2 () Int)
(declare-fun lam12n0 () Int)
(declare-fun lam12n1 () Int)
(declare-fun lam12n2 () Int)
(declare-fun lam13n0 () Int)
(declare-fun lam13n1 () Int)
(declare-fun lam13n2 () Int)
(declare-fun undef5 () Int)
(declare-fun undef81 () Int)
(declare-fun undef2 () Int)
(declare-fun FV_x_10^0_2 () Int)
(declare-fun FV_undef45_0 () Int)
(declare-fun FV_x_10^0_0 () Int)
(declare-fun FV_undef45_1 () Int)
(declare-fun FV_x_10^0_1 () Int)
(declare-fun lam14n0 () Int)
(declare-fun lam14n1 () Int)
(declare-fun lam14n2 () Int)
(declare-fun lam14n3 () Int)
(declare-fun FV_x_10^0_3 () Int)
(declare-fun FV_undef45_3 () Int)
(assert ( and ( <= ( - 1 ) Nl7x_10^01 ) ( <= Nl7x_10^01 1 ) ( <= ( - 1 ) Nl7x_10^02 ) ( <= Nl7x_10^02 1 ) ( <= ( - 1 ) Nl7x_10^03 ) ( <= Nl7x_10^03 1 ) ))
(assert ( or ( and ( >= lam0n0 0 ) ( >= lam0n1 0 ) ( >= lam0n2 0 ) ( >= lam0n3 0 ) ( >= lam0n4 0 ) ( >= lam0n5 0 ) ( > ( + ( * 1 lam0n0 ) ( * 50001 lam0n1 ) ( * UndefCntr0_CT lam0n2 ) ( * Nl7CT1 lam0n3 ) ( * Nl7CT2 lam0n4 ) ( * Nl7CT3 lam0n5 ) ( - 1 ) ) 0 ) ( = ( + ( * ( - 1 ) lam0n1 ) ( * UndefCntr0_x_10^0 lam0n2 ) ( * Nl7x_10^01 lam0n3 ) ( * Nl7x_10^02 lam0n4 ) ( * Nl7x_10^03 lam0n5 ) ) 0 ) ( = ( + ( * 1 lam0n0 ) ( * UndefCntr0_undef45 lam0n2 ) ) 0 ) ) ( and ( >= lam1n0 0 ) ( >= lam1n1 0 ) ( >= lam1n2 0 ) ( >= lam1n3 0 ) ( >= lam1n4 0 ) ( >= lam1n5 0 ) ( > ( + ( * 1 lam1n0 ) ( * 50001 lam1n1 ) ( * UndefCntr0_CT lam1n2 ) ( * Nl7CT1 lam1n3 ) ( * Nl7CT2 lam1n4 ) ( * Nl7CT3 lam1n5 ) ( - 1 ( + Nl7CT1 ( * Nl7x_10^01 1 ) ) ) ) 0 ) ( = ( + ( * ( - 1 ) lam1n1 ) ( * UndefCntr0_x_10^0 lam1n2 ) ( * Nl7x_10^01 lam1n3 ) ( * Nl7x_10^02 lam1n4 ) ( * Nl7x_10^03 lam1n5 ) ( - ( + 0 ( * Nl7x_10^01 1 ) ) ) ) 0 ) ( = ( + ( * 1 lam1n0 ) ( * UndefCntr0_undef45 lam1n2 ) ) 0 ) ) ))
(assert ( or ( and ( >= lam0n0 0 ) ( >= lam0n1 0 ) ( >= lam0n2 0 ) ( >= lam0n3 0 ) ( >= lam0n4 0 ) ( >= lam0n5 0 ) ( > ( + ( * 1 lam0n0 ) ( * 50001 lam0n1 ) ( * UndefCntr0_CT lam0n2 ) ( * Nl7CT1 lam0n3 ) ( * Nl7CT2 lam0n4 ) ( * Nl7CT3 lam0n5 ) ( - 1 ) ) 0 ) ( = ( + ( * ( - 1 ) lam0n1 ) ( * UndefCntr0_x_10^0 lam0n2 ) ( * Nl7x_10^01 lam0n3 ) ( * Nl7x_10^02 lam0n4 ) ( * Nl7x_10^03 lam0n5 ) ) 0 ) ( = ( + ( * 1 lam0n0 ) ( * UndefCntr0_undef45 lam0n2 ) ) 0 ) ) ( and ( >= lam2n0 0 ) ( >= lam2n1 0 ) ( >= lam2n2 0 ) ( >= lam2n3 0 ) ( >= lam2n4 0 ) ( >= lam2n5 0 ) ( > ( + ( * 1 lam2n0 ) ( * 50001 lam2n1 ) ( * UndefCntr0_CT lam2n2 ) ( * Nl7CT1 lam2n3 ) ( * Nl7CT2 lam2n4 ) ( * Nl7CT3 lam2n5 ) ( - 1 ( + Nl7CT2 ( * Nl7x_10^02 1 ) ) ) ) 0 ) ( = ( + ( * ( - 1 ) lam2n1 ) ( * UndefCntr0_x_10^0 lam2n2 ) ( * Nl7x_10^01 lam2n3 ) ( * Nl7x_10^02 lam2n4 ) ( * Nl7x_10^03 lam2n5 ) ( - ( + 0 ( * Nl7x_10^02 1 ) ) ) ) 0 ) ( = ( + ( * 1 lam2n0 ) ( * UndefCntr0_undef45 lam2n2 ) ) 0 ) ) ))
(assert ( or ( and ( >= lam0n0 0 ) ( >= lam0n1 0 ) ( >= lam0n2 0 ) ( >= lam0n3 0 ) ( >= lam0n4 0 ) ( >= lam0n5 0 ) ( > ( + ( * 1 lam0n0 ) ( * 50001 lam0n1 ) ( * UndefCntr0_CT lam0n2 ) ( * Nl7CT1 lam0n3 ) ( * Nl7CT2 lam0n4 ) ( * Nl7CT3 lam0n5 ) ( - 1 ) ) 0 ) ( = ( + ( * ( - 1 ) lam0n1 ) ( * UndefCntr0_x_10^0 lam0n2 ) ( * Nl7x_10^01 lam0n3 ) ( * Nl7x_10^02 lam0n4 ) ( * Nl7x_10^03 lam0n5 ) ) 0 ) ( = ( + ( * 1 lam0n0 ) ( * UndefCntr0_undef45 lam0n2 ) ) 0 ) ) ( and ( >= lam3n0 0 ) ( >= lam3n1 0 ) ( >= lam3n2 0 ) ( >= lam3n3 0 ) ( >= lam3n4 0 ) ( >= lam3n5 0 ) ( > ( + ( * 1 lam3n0 ) ( * 50001 lam3n1 ) ( * UndefCntr0_CT lam3n2 ) ( * Nl7CT1 lam3n3 ) ( * Nl7CT2 lam3n4 ) ( * Nl7CT3 lam3n5 ) ( - 1 ( + Nl7CT3 ( * Nl7x_10^03 1 ) ) ) ) 0 ) ( = ( + ( * ( - 1 ) lam3n1 ) ( * UndefCntr0_x_10^0 lam3n2 ) ( * Nl7x_10^01 lam3n3 ) ( * Nl7x_10^02 lam3n4 ) ( * Nl7x_10^03 lam3n5 ) ( - ( + 0 ( * Nl7x_10^03 1 ) ) ) ) 0 ) ( = ( + ( * 1 lam3n0 ) ( * UndefCntr0_undef45 lam3n2 ) ) 0 ) ) ))
(assert ( or ( and ( >= lam4n0 0 ) ( >= lam4n1 0 ) ( >= lam4n2 0 ) ( >= lam4n3 0 ) ( >= lam4n4 0 ) ( >= lam4n5 0 ) ( > ( + ( * 1 lam4n0 ) ( * 50001 lam4n1 ) ( * UndefCntr1_CT lam4n2 ) ( * Nl7CT1 lam4n3 ) ( * Nl7CT2 lam4n4 ) ( * Nl7CT3 lam4n5 ) ( - 1 ) ) 0 ) ( = ( + ( * ( - 1 ) lam4n1 ) ( * UndefCntr1_x_10^0 lam4n2 ) ( * Nl7x_10^01 lam4n3 ) ( * Nl7x_10^02 lam4n4 ) ( * Nl7x_10^03 lam4n5 ) ) 0 ) ( = ( + ( * ( - 1 ) lam4n0 ) ( * UndefCntr1_undef45 lam4n2 ) ) 0 ) ) ( and ( >= lam5n0 0 ) ( >= lam5n1 0 ) ( >= lam5n2 0 ) ( >= lam5n3 0 ) ( >= lam5n4 0 ) ( >= lam5n5 0 ) ( > ( + ( * 1 lam5n0 ) ( * 50001 lam5n1 ) ( * UndefCntr1_CT lam5n2 ) ( * Nl7CT1 lam5n3 ) ( * Nl7CT2 lam5n4 ) ( * Nl7CT3 lam5n5 ) ( - 1 ( + Nl7CT1 ( * Nl7x_10^01 1 ) ) ) ) 0 ) ( = ( + ( * ( - 1 ) lam5n1 ) ( * UndefCntr1_x_10^0 lam5n2 ) ( * Nl7x_10^01 lam5n3 ) ( * Nl7x_10^02 lam5n4 ) ( * Nl7x_10^03 lam5n5 ) ( - ( + 0 ( * Nl7x_10^01 1 ) ) ) ) 0 ) ( = ( + ( * ( - 1 ) lam5n0 ) ( * UndefCntr1_undef45 lam5n2 ) ) 0 ) ) ))
(assert ( or ( and ( >= lam4n0 0 ) ( >= lam4n1 0 ) ( >= lam4n2 0 ) ( >= lam4n3 0 ) ( >= lam4n4 0 ) ( >= lam4n5 0 ) ( > ( + ( * 1 lam4n0 ) ( * 50001 lam4n1 ) ( * UndefCntr1_CT lam4n2 ) ( * Nl7CT1 lam4n3 ) ( * Nl7CT2 lam4n4 ) ( * Nl7CT3 lam4n5 ) ( - 1 ) ) 0 ) ( = ( + ( * ( - 1 ) lam4n1 ) ( * UndefCntr1_x_10^0 lam4n2 ) ( * Nl7x_10^01 lam4n3 ) ( * Nl7x_10^02 lam4n4 ) ( * Nl7x_10^03 lam4n5 ) ) 0 ) ( = ( + ( * ( - 1 ) lam4n0 ) ( * UndefCntr1_undef45 lam4n2 ) ) 0 ) ) ( and ( >= lam6n0 0 ) ( >= lam6n1 0 ) ( >= lam6n2 0 ) ( >= lam6n3 0 ) ( >= lam6n4 0 ) ( >= lam6n5 0 ) ( > ( + ( * 1 lam6n0 ) ( * 50001 lam6n1 ) ( * UndefCntr1_CT lam6n2 ) ( * Nl7CT1 lam6n3 ) ( * Nl7CT2 lam6n4 ) ( * Nl7CT3 lam6n5 ) ( - 1 ( + Nl7CT2 ( * Nl7x_10^02 1 ) ) ) ) 0 ) ( = ( + ( * ( - 1 ) lam6n1 ) ( * UndefCntr1_x_10^0 lam6n2 ) ( * Nl7x_10^01 lam6n3 ) ( * Nl7x_10^02 lam6n4 ) ( * Nl7x_10^03 lam6n5 ) ( - ( + 0 ( * Nl7x_10^02 1 ) ) ) ) 0 ) ( = ( + ( * ( - 1 ) lam6n0 ) ( * UndefCntr1_undef45 lam6n2 ) ) 0 ) ) ))
(assert ( or ( and ( >= lam4n0 0 ) ( >= lam4n1 0 ) ( >= lam4n2 0 ) ( >= lam4n3 0 ) ( >= lam4n4 0 ) ( >= lam4n5 0 ) ( > ( + ( * 1 lam4n0 ) ( * 50001 lam4n1 ) ( * UndefCntr1_CT lam4n2 ) ( * Nl7CT1 lam4n3 ) ( * Nl7CT2 lam4n4 ) ( * Nl7CT3 lam4n5 ) ( - 1 ) ) 0 ) ( = ( + ( * ( - 1 ) lam4n1 ) ( * UndefCntr1_x_10^0 lam4n2 ) ( * Nl7x_10^01 lam4n3 ) ( * Nl7x_10^02 lam4n4 ) ( * Nl7x_10^03 lam4n5 ) ) 0 ) ( = ( + ( * ( - 1 ) lam4n0 ) ( * UndefCntr1_undef45 lam4n2 ) ) 0 ) ) ( and ( >= lam7n0 0 ) ( >= lam7n1 0 ) ( >= lam7n2 0 ) ( >= lam7n3 0 ) ( >= lam7n4 0 ) ( >= lam7n5 0 ) ( > ( + ( * 1 lam7n0 ) ( * 50001 lam7n1 ) ( * UndefCntr1_CT lam7n2 ) ( * Nl7CT1 lam7n3 ) ( * Nl7CT2 lam7n4 ) ( * Nl7CT3 lam7n5 ) ( - 1 ( + Nl7CT3 ( * Nl7x_10^03 1 ) ) ) ) 0 ) ( = ( + ( * ( - 1 ) lam7n1 ) ( * UndefCntr1_x_10^0 lam7n2 ) ( * Nl7x_10^01 lam7n3 ) ( * Nl7x_10^02 lam7n4 ) ( * Nl7x_10^03 lam7n5 ) ( - ( + 0 ( * Nl7x_10^03 1 ) ) ) ) 0 ) ( = ( + ( * ( - 1 ) lam7n0 ) ( * UndefCntr1_undef45 lam7n2 ) ) 0 ) ) ))
(assert ( and ( <= ( + Nl7CT1 ( * Nl7x_10^01 FV_x_10^0_2 ) ) 0 ) ( <= ( + Nl7CT2 ( * Nl7x_10^02 FV_x_10^0_2 ) ) 0 ) ( <= ( + Nl7CT3 ( * Nl7x_10^03 FV_x_10^0_2 ) ) 0 ) ))
(assert ( or ( not ( = UndefCntr0_x_10^0 0 ) ) ( not ( = UndefCntr0_undef45 0 ) ) ( = UndefCntr0_CT 0 ) ))
(assert ( or ( = UndefCntr0_x_10^0 0 ) ( not ( = UndefCntr0_undef45 0 ) ) ))
(assert ( or ( not ( = UndefCntr1_x_10^0 0 ) ) ( not ( = UndefCntr1_undef45 0 ) ) ( = UndefCntr1_CT 0 ) ))
(assert ( or ( = UndefCntr1_x_10^0 0 ) ( not ( = UndefCntr1_undef45 0 ) ) ))
(assert ( or ( = UndefCntr0_undef45 0 ) ( and ( = UndefCntr0_x_10^0 0 ) ( or ( and ( <= ( + 1 FV_undef45_0 ) 0 ) ( <= ( + UndefCntr0_CT ( * UndefCntr0_undef45 FV_undef45_0 ) ( * UndefCntr0_x_10^0 FV_x_10^0_0 ) ) 0 ) ) ( and ( and ( = UndefCntr0_undef45 UndefCntr1_undef45 ) ( = UndefCntr0_CT UndefCntr1_CT ) ) ( or ( and ( <= ( + 1 FV_undef45_0 ) 0 ) ( <= ( + UndefCntr0_CT ( * UndefCntr0_undef45 FV_undef45_0 ) ( * UndefCntr0_x_10^0 FV_x_10^0_0 ) ) 0 ) ) ( and ( <= ( + 1 ( * ( - 1 ) FV_undef45_1 ) ) 0 ) ( <= ( + UndefCntr1_CT ( * UndefCntr1_undef45 FV_undef45_1 ) ( * UndefCntr1_x_10^0 FV_x_10^0_1 ) ) 0 ) ) ) ) ) ) ))
(assert ( or ( = UndefCntr1_undef45 0 ) ( and ( = UndefCntr1_x_10^0 0 ) ( or ( and ( <= ( + 1 ( * ( - 1 ) FV_undef45_1 ) ) 0 ) ( <= ( + UndefCntr1_CT ( * UndefCntr1_undef45 FV_undef45_1 ) ( * UndefCntr1_x_10^0 FV_x_10^0_1 ) ) 0 ) ) ( and ( and ( = UndefCntr0_undef45 UndefCntr1_undef45 ) ( = UndefCntr0_CT UndefCntr1_CT ) ) ( or ( and ( <= ( + 1 FV_undef45_0 ) 0 ) ( <= ( + UndefCntr0_CT ( * UndefCntr0_undef45 FV_undef45_0 ) ( * UndefCntr0_x_10^0 FV_x_10^0_0 ) ) 0 ) ) ( and ( <= ( + 1 ( * ( - 1 ) FV_undef45_1 ) ) 0 ) ( <= ( + UndefCntr1_CT ( * UndefCntr1_undef45 FV_undef45_1 ) ( * UndefCntr1_x_10^0 FV_x_10^0_1 ) ) 0 ) ) ) ) ) ) ))
(assert ( and ( >= lam14n0 0 ) ( >= lam14n1 0 ) ( >= lam14n2 0 ) ( >= lam14n3 0 ) ( > ( + ( * ( - 50000 ) lam14n0 ) ( * Nl7CT1 lam14n1 ) ( * Nl7CT2 lam14n2 ) ( * Nl7CT3 lam14n3 ) ( - 1 ) ) 0 ) ( = ( + ( * 1 lam14n0 ) ( * Nl7x_10^01 lam14n1 ) ( * Nl7x_10^02 lam14n2 ) ( * Nl7x_10^03 lam14n3 ) ) 0 ) ))
(assert ( and ( and ( <= ( + Nl7CT1 ( * Nl7x_10^01 FV_x_10^0_3 ) ) 0 ) ( <= ( + Nl7CT2 ( * Nl7x_10^02 FV_x_10^0_3 ) ) 0 ) ( <= ( + Nl7CT3 ( * Nl7x_10^03 FV_x_10^0_3 ) ) 0 ) ) ( or ( and ( <= ( + 1 FV_undef45_3 ) 0 ) ( <= ( + 50001 ( * ( - 1 ) FV_x_10^0_3 ) ) 0 ) ) ( and ( <= ( + 1 ( * ( - 1 ) FV_undef45_3 ) ) 0 ) ( <= ( + 50001 ( * ( - 1 ) FV_x_10^0_3 ) ) 0 ) ) ) ))
(check-sat)
(exit)
